
Gurobi 11.0.3 (linux64) logging started Mon Aug 25 16:52:59 2025

Set parameter LogFile to value "/home/yihong/Coding/OR_SUC/SUC_epstheta_results_bigM100000_thread4/case24_ieee_rts_theta0.001_epsilon0.1_gurobi_seed260000_num_gen100_N_WDR50_load_scaling_factor1_ori_eps_T3quadra_cost_bc1.03.txt"
Set parameter TimeLimit to value 3600
Gurobi Optimizer version 11.0.3 build v11.0.3rc0 (linux64 - "Ubuntu 20.04.6 LTS")

CPU model: AMD EPYC 7532 32-Core Processor, instruction set [SSE2|AVX|AVX2]
Thread count: 64 physical cores, 128 logical processors, using up to 4 threads

Academic license 2399124 - for non-commercial use only - registered to yi___@ed.ac.uk
Optimize a model with 6709 rows, 3771 columns and 162814 nonzeros
Model fingerprint: 0xc8aff8df
Model has 300 quadratic constraints
Variable types: 3471 continuous, 300 integer (300 binary)
Coefficient statistics:
  Matrix range     [3e-04, 2e+03]
  QMatrix range    [2e-03, 8e-03]
  QLMatrix range   [1e-01, 6e+01]
  Objective range  [1e+00, 1e+00]
  Bounds range     [1e+00, 1e+00]
  RHS range        [5e-02, 9e+03]
Presolve removed 5629 rows and 1758 columns
Presolve time: 0.04s
Presolved: 1080 rows, 2013 columns, 6553 nonzeros
Presolved model has 300 quadratic constraint(s)
Variable types: 1713 continuous, 300 integer (300 binary)

Root relaxation: objective 3.200933e+03, 837 iterations, 0.01 seconds (0.01 work units)

    Nodes    |    Current Node    |     Objective Bounds      |     Work
 Expl Unexpl |  Obj  Depth IntInf | Incumbent    BestBd   Gap | It/Node Time

     0     0 3200.93263    0    3          - 3200.93263      -     -    0s
     0     0 58185.9830    0   69          - 58185.9830      -     -    0s
     0     0 92982.3197    0   42          - 92982.3197      -     -    0s
     0     0 92984.8533    0   42          - 92984.8533      -     -    0s
     0     0 92998.9641    0   21          - 92998.9641      -     -    0s
     0     0 92999.1090    0   21          - 92999.1090      -     -    0s
     0     0 92999.1090    0   21          - 92999.1090      -     -    0s
     0     2 92999.1424    0   21          - 92999.1424      -     -    0s
H   55    50                    93083.402197 93006.5347  0.08%   7.3    0s
*   55    50              14    93083.402197 93006.5347  0.08%   7.3    0s

Cutting planes:
  Gomory: 19
  Implied bound: 69
  MIR: 22
  Flow cover: 65

Explored 59 nodes (2621 simplex iterations) in 0.62 seconds (0.43 work units)
Thread count was 4 (of 128 available processors)

Solution count 2: 93083.4 93083.4 

Optimal solution found (tolerance 1.00e-03)
Warning: max constraint violation (5.4171e-08) exceeds tolerance
Best objective 9.308340219701e+04, best bound 9.300653465808e+04, gap 0.0826%

Gurobi 11.0.3 (linux64) logging started Mon Aug 25 16:53:00 2025

Set parameter LogFile to value "/home/yihong/Coding/OR_SUC/SUC_epstheta_results_bigM100000_thread4/case24_ieee_rts_theta0.001_epsilon0.1_gurobi_seed260000_num_gen100_N_WDR50_load_scaling_factor1_ori_eps_T3quadra_cost_bc1.03.txt"
Set parameter TimeLimit to value 3600
Gurobi Optimizer version 11.0.3 build v11.0.3rc0 (linux64 - "Ubuntu 20.04.6 LTS")

CPU model: AMD EPYC 7532 32-Core Processor, instruction set [SSE2|AVX|AVX2]
Thread count: 64 physical cores, 128 logical processors, using up to 4 threads

Academic license 2399124 - for non-commercial use only - registered to yi___@ed.ac.uk
Optimize a model with 17005 rows, 3772 columns and 1276951 nonzeros
Model fingerprint: 0x7e216bf4
Model has 301 quadratic constraints
Variable types: 3472 continuous, 300 integer (300 binary)
Coefficient statistics:
  Matrix range     [3e-04, 2e+03]
  QMatrix range    [2e-03, 5e+01]
  QLMatrix range   [1e-01, 6e+01]
  Objective range  [1e+00, 1e+00]
  Bounds range     [1e-01, 1e+00]
  RHS range        [8e-02, 1e+05]
  QRHS range       [5e-02, 5e-02]
Presolve removed 5129 rows and 1530 columns
Presolve time: 1.09s
Presolved: 12178 rows, 2543 columns, 258150 nonzeros
Presolved model has 300 quadratic constraint(s)
Presolved model has 1 bilinear constraint(s)
Warning: Model contains variables with very large bounds participating
         in product terms.
         Presolve was not able to compute smaller bounds for these variables.
         Consider bounding these variables or reformulating the model.


Solving non-convex MIQCP

Variable types: 2239 continuous, 304 integer (304 binary)

Root relaxation: objective 0.000000e+00, 1464 iterations, 0.22 seconds (0.67 work units)

    Nodes    |    Current Node    |     Objective Bounds      |     Work
 Expl Unexpl |  Obj  Depth IntInf | Incumbent    BestBd   Gap | It/Node Time

     0     0    0.00000    0   10          -    0.00000      -     -    2s
     0     0    0.00000    0    1          -    0.00000      -     -    3s
H    0     0                       0.0002752    0.00000   100%     -  208s
H    0     0                       0.0002519    0.00000   100%     -  208s
H    0     0                       0.0002061    0.00000   100%     -  208s
H    0     0                       0.0002061    0.00021  0.00%     -  208s

Cutting planes:
  Implied bound: 7
  MIR: 3
  Flow cover: 3
  Inf proof: 6
  RLT: 1

Explored 1 nodes (1716 simplex iterations) in 208.97 seconds (104.85 work units)
Thread count was 4 (of 128 available processors)

Solution count 4: 0.000206065 0.000206069 0.000251874 0.000275211 

Optimal solution found (tolerance 1.00e-03)
Best objective 2.060650479983e-04, best bound 2.060650479983e-04, gap 0.0000%
